(declare-const _tmp__init Int)
(declare-const x_init Int)
(declare-const c_0 Int)
(declare-const c_1 Int)
(declare-const c_2 Int)
(declare-const c_3 Int)
(declare-const c_4 Int)
(declare-const c_5 Int)
(declare-const c_6 Int)
(declare-const c_7 Int)
(declare-const c_8 Int)
(declare-const c_9 Int)
(declare-const c_10 Int)
(assert (< c_2 0))
(assert (and (>= (+ (* (- 1) _tmp__init ) (* 1 c_3 ) ) 0) (>= (+ (* 1 _tmp__init ) (* (- 1) c_3 ) ) 0) (>= (+ (* 1 c_4 ) (* (- 1) x_init ) ) 0) (>= (+ (* (- 1) c_4 ) (* 1 x_init ) ) 0) ))
(assert (forall ((_tmp_ Real) (x Real) (_r_0 Real) ) (=> (and (>= (+ (* (- 1) _tmp_ ) (* 1 c_3 ) ) 0) (>= (+ (* 1 _tmp_ ) (* (- 1) c_3 ) ) 0) (>= (+ (* 1 c_4 ) (* (- 1) x ) ) 0) (>= (+ (* (- 1) c_4 ) (* 1 x ) ) 0) ) (>= (+ (* 1 _tmp_ c_6 ) (* 1 c_5 ) (* 1 c_7 x ) ) 0) )))
(assert (forall ((_tmp_ Real) (x Real) (_r_0 Real) ) (=> (and (>= (+ (* (- 1) _tmp_ ) (* 1 c_3 ) ) 0) (>= (+ (* 1 _tmp_ ) (* (- 1) c_3 ) ) 0) (>= (+ (* 1 c_4 ) (* (- 1) x ) ) 0) (>= (+ (* (- 1) c_4 ) (* 1 x ) ) 0) ) (>= (+ (* 1 _tmp_ c_9 ) (* 1 c_10 x ) (* 1 c_8 ) ) 0) )))
(assert (forall ((_tmp_ Real) (x Real) (_r_0 Real) ) (=> (and (>= (* (- 1) _r_0 ) 0) (>= (+ (* 1 _r_0 ) (* (- 1) _tmp_ c_0 ) (* (- 1) c_1 x ) ) 0) (>= (+ (* (- 1) _r_0 ) (* 1 _tmp_ c_0 ) (* 1 c_1 x ) ) 0) (>= (* 1 x ) 0) (>= (+ (* 1 _tmp_ c_6 ) (* 1 c_5 ) (* 1 c_7 x ) ) 0) (>= (+ (* 1 _tmp_ c_9 ) (* 1 c_10 x ) (* 1 c_8 ) ) 0) ) (>= (+ (* 1 _r_0 c_6 ) (* 1 c_5 ) (* (- 1) c_7 ) (* 1 c_7 x ) ) 0) )))
(assert (forall ((_tmp_ Real) (x Real) (_r_0 Real) ) (=> (and (>= (* (- 1) _r_0 ) 0) (>= (+ (* 1 _r_0 ) (* (- 1) _tmp_ c_0 ) (* (- 1) c_1 x ) ) 0) (>= (+ (* (- 1) _r_0 ) (* 1 _tmp_ c_0 ) (* 1 c_1 x ) ) 0) (>= (* 1 x ) 0) (>= (+ (* 1 _tmp_ c_6 ) (* 1 c_5 ) (* 1 c_7 x ) ) 0) (>= (+ (* 1 _tmp_ c_9 ) (* 1 c_10 x ) (* 1 c_8 ) ) 0) ) (>= (+ (* 1 _r_0 c_9 ) (* (- 1) c_10 ) (* 1 c_10 x ) (* 1 c_8 ) ) 0) )))
(assert (forall ((_tmp_ Real) (x Real) (_r_0 Real) ) (=> (and (>= (+ (* (- 1) 1) (* 1 _r_0 ) ) 0) (>= (+ (* 1 _r_0 ) (* (- 1) _tmp_ c_0 ) (* (- 1) c_1 x ) ) 0) (>= (+ (* (- 1) _r_0 ) (* 1 _tmp_ c_0 ) (* 1 c_1 x ) ) 0) (>= (* 1 x ) 0) (>= (+ (* 1 _tmp_ c_6 ) (* 1 c_5 ) (* 1 c_7 x ) ) 0) (>= (+ (* 1 _tmp_ c_9 ) (* 1 c_10 x ) (* 1 c_8 ) ) 0) ) (>= (+ (* 1 _r_0 c_6 ) (* 1 c_5 ) (* 1 c_7 ) (* 1 c_7 x ) ) 0) )))
(assert (forall ((_tmp_ Real) (x Real) (_r_0 Real) ) (=> (and (>= (+ (* (- 1) 1) (* 1 _r_0 ) ) 0) (>= (+ (* 1 _r_0 ) (* (- 1) _tmp_ c_0 ) (* (- 1) c_1 x ) ) 0) (>= (+ (* (- 1) _r_0 ) (* 1 _tmp_ c_0 ) (* 1 c_1 x ) ) 0) (>= (* 1 x ) 0) (>= (+ (* 1 _tmp_ c_6 ) (* 1 c_5 ) (* 1 c_7 x ) ) 0) (>= (+ (* 1 _tmp_ c_9 ) (* 1 c_10 x ) (* 1 c_8 ) ) 0) ) (>= (+ (* 1 _r_0 c_9 ) (* 1 c_10 ) (* 1 c_10 x ) (* 1 c_8 ) ) 0) )))
(assert (forall ((_tmp_ Real) (x Real) (_r_0 Real) ) (=> (and (>= (+ (* (- 1) 1) (* (- 1) x ) ) 0) (>= (+ (* 1 _tmp_ c_6 ) (* 1 c_5 ) (* 1 c_7 x ) ) 0) (>= (+ (* 1 _tmp_ c_9 ) (* 1 c_10 x ) (* 1 c_8 ) ) 0) ) (>= (* 1 c_2 ) 0) )))
(check-sat)
(get-model)

